Instance name : RC205
Authors : bauke
Date :    21-05-13
Reference : N/A
Solution
Route 1 : 2 45 5 42 39 36 72 71 62 94 61 44 40 38 41 81 90 53 98 55 68 43 35 37 54 96 93 91 80
Route 2 : 65 83 64 19 23 21 18 57 86 52 99 9 87 59 75 97 10 66 56 50 34 32 26 89 48 25 77 58
Route 3 : 69 82 11 15 16 47 14 12 88 78 73 79 7 6 8 46 4 3 1 70 100
Route 4 : 92 95 33 28 27 29 31 30 63 76 85 67 84 51 49 22 20 24 74 13 17 60

